c Sudoku solution
p cnf 729 0
138 0
144 0
169 0
227 0
278 0
285 0
394 0
435 0
464 0
489 0
555 0
581 0
593 0
611 0
698 0
675 0
776 0
852 0
867 0
884 0
574 0
913 0
931 0
959 0
754 0
924 0
214 0
634 0
968 0
946 0
995 0
788 0
873 0
379 0
239 0
333 0
183 0
836 0
171 0
321 0
982 0
977 0
472 0
157 0
387 0
686 0
497 0
653 0
423 0
662 0
566 0
416 0
629 0
549 0
647 0
126 0
115 0
312 0
192 0
296 0
242 0
743 0
251 0
263 0
458 0
441 0
845 0
761 0
799 0
891 0
725 0
732 0
828 0
717 0
819 0
518 0
537 0
522 0
348 0
365 0
356 0
